N = 33;
MinK = 5;
Capacity = 100;

X = array1d(0..33, [73, 67, 39, 3, 97, 91, 55, 55, 57, 21, 47, 51, 11, 43, 63, 55, 35, 27, 49, 29, 71, 31, 27, 67, 87, 23, 89, 71, 19, 65, 87, 19, 1, 55]);
Y = array1d(0..33, [39, 91, 21, 9, 15, 65, 75, 71, 85, 15, 57, 97, 11, 59, 69, 77, 11, 91, 25, 93, 27, 43, 9, 99, 81, 81, 33, 91, 77, 77, 79, 83, 59, 7]);

Demands = [23, 3, 24, 15, 15, 24, 7, 25, 13, 5, 7, 5, 14, 13, 5, 24, 15, 9, 16, 13, 16, 13, 24, 20, 23, 20, 3, 15, 12, 19, 4, 15, 1];
